20	5
0	8	6	4	5	1	7	2	8	3
1	2	11	9
2	4	17	18	12	9
3	4	16	17	10	15
4	2	18	9
5	5	18	17	20	10	9
6	3	9	17	12
7	2	16	12
8	3	17	13	9
9	2	19	16
10	0
11	4	12	15	17	16
12	2	20	10
13	2	20	18
14	1	13
15	2	19	14
16	1	21
17	1	21
18	1	21
19	1	21
20	1	21
21	0
0	0	0	0	0	0	0
1	1	3	2	0	1	4
2	9	1	3	4	1	5
3	2	4	0	0	4	0
4	7	0	0	0	4	1
5	5	5	5	0	0	3
6	10	5	5	5	3	2
7	10	4	5	1	3	1
8	5	3	3	4	4	2
9	9	0	4	0	0	1
10	3	0	5	2	0	3
11	1	1	0	4	0	1
12	8	4	1	1	5	1
13	6	2	5	1	4	4
14	10	2	2	3	1	5
15	5	1	0	3	0	0
16	10	2	0	4	2	0
17	4	5	2	5	0	2
18	7	0	0	0	2	3
19	7	3	5	2	2	1
20	9	4	5	2	2	1
21	0	0	0	0	0	0
10	10	8	9	8
